(declare-fun bvlambda_8_ ()Bool         )
(declare-fun bvlambda_25_ ()Bool         )
(declare-fun bvlambda_30_ () (_ BitVec 5))
(declare-fun a111 () (Array (_ BitVec 1) (_ BitVec 4)))
(assert
(let (($e1 (_ bv0 1)))
(let (($e20 (_ bv0 3)))
(let (($e25 (_ bv0 12)))
(let (($e76 (_ bv0 2)))
(let (($e112 (concat $e20 bvlambda_8_ )))
(let (($e113 (concat $e112 bvlambda_30_)))
(let (($e114 (concat $e113 bvlambda_8_ )))
(let (($e115 (concat $e114 bvlambda_25_)))
(let (($e116         $e115              ))
(let (($e131 (select a111 bvlambda_8_)))
(let (($e132 (concat $e25 $e131)))
(let (($e145 (store a111  $e1        $e112)))
(let (($e146 (select $e145 bvlambda_8_)))
(let (($e147 (concat $e115 $e146)))
(let (($e149 (concat bvlambda_8_ $e147)))
(let (($e150      (bvult $e132 $e149)         ))
(let (($e152 (select a111 true        )))
(let (($e165 ((_ extract 1 0) $e152)))
(let (($e166      (bvult $e76 $e165)         ))
(let (($e169 (bvand $e166 $e150)))
(let (($e186 (store a111  $e1 $e131)))
(let (($e187 (select $e186 $e150)))
(let (($e192 (   extract        $e187)))
(let (($e207                $e25        ))
(let (($e211         $e20       ))
             (=     (bvnot $e192)        $e169 )
                                                                                                                                                                                                                                                                                                                                                                                                                                                                                                                                                                                                                                                                                                                                                                                                                                                                                                                                                               )   )              )    ))                )  ))            ) )) )))            ))              )))))   )                                                  )    )                  ))
